NAME: Dataset(12)
COMMENT: 
TYPE: TSP
DIMENSION: 12
EDGE_WEIGHT_TYPE: EUC_2D
NODE_COORD_SECTION
1 47.03968770331816 163.53084911423335
2 222.66152362584378 472.99880525686984
3 237.87416004886987 214.78968792401628
4 71.6330513988289 366.923818707811
5 197.0604246053348 228.18371607515658
6 320.0640341515475 241.70461938841902
7 21.020228671943713 155.14511873350924
8 358.78136200716847 376.5830346475508
9 154.257595207531 23.13104661389622
10 92.86125503742083 274.85852869846406
11 146.74726540011514 259.53627524308155
12 16.529543754674645 77.89725209080048
EOF